NAME 
ROWS
 N  OBJ
 L  R0      
 E  R1      
 E  R2      
 E  R3      
 E  R4      
 E  R5      
 E  R6      
 E  R7      
 E  R8      
 E  R9      
 E  R10     
 E  R11     
 E  R12     
 E  R13     
 E  R14     
 E  R15     
 E  R16     
 E  R17     
 E  R18     
 E  R19     
 E  R20     
 E  R21     
 E  R22     
 E  R23     
 E  R24     
 E  R25     
 E  R26     
 E  R27     
 E  R28     
 E  R29     
 E  R30     
 E  R31     
 E  R32     
 E  R33     
 E  R34     
 E  R35     
 E  R36     
 E  R37     
 E  R38     
 E  R39     
 E  R40     
COLUMNS
    MARKER    'MARKER'                 'INTORG'
    I0(3)     OBJ       -93
    I0(3)     R0        104
    I0(3)     R1        8
    I0(3)     R40       1
    I1(3)     OBJ       -189
    I1(3)     R0        -184
    I1(3)     R2        4
    I1(3)     R40       1
    I2(3)     OBJ       -145
    I2(3)     R0        57
    I2(3)     R3        13
    I2(3)     R40       1
    I3(3)     OBJ       -160
    I3(3)     R0        184
    I3(3)     R4        14
    I3(3)     R40       1
    I4(3)     OBJ       96
    I4(3)     R0        37
    I4(3)     R5        1
    I4(3)     R40       1
    I5(3)     OBJ       -182
    I5(3)     R0        -29
    I5(3)     R6        9
    I5(3)     R40       1
    I6(3)     OBJ       23
    I6(3)     R0        -155
    I6(3)     R7        7
    I6(3)     R40       1
    I7(3)     OBJ       25
    I7(3)     R0        119
    I7(3)     R8        7
    I7(3)     R40       1
    I8(3)     OBJ       136
    I8(3)     R0        -184
    I8(3)     R9        7
    I8(3)     R40       1
    I9(3)     OBJ       50
    I9(3)     R0        -177
    I9(3)     R10       9
    I9(3)     R40       1
    I10(3)    OBJ       -167
    I10(3)    R0        144
    I10(3)    R11       10
    I10(3)    R40       1
    I11(3)    OBJ       -170
    I11(3)    R0        -104
    I11(3)    R12       18
    I11(3)    R40       1
    I12(3)    OBJ       -149
    I12(3)    R0        -99
    I12(3)    R13       18
    I12(3)    R40       1
    I13(3)    OBJ       65
    I13(3)    R0        -32
    I13(3)    R14       13
    I13(3)    R40       1
    I14(3)    OBJ       -200
    I14(3)    R0        -118
    I14(3)    R15       3
    I14(3)    R40       1
    I15(3)    OBJ       183
    I15(3)    R0        -21
    I15(3)    R16       14
    I15(3)    R40       1
    I16(3)    OBJ       64
    I16(3)    R0        54
    I16(3)    R17       -1
    I16(3)    R40       1
    I17(3)    OBJ       -45
    I17(3)    R0        172
    I17(3)    R18       7
    I17(3)    R40       1
    I18(3)    OBJ       -187
    I18(3)    R0        7
    I18(3)    R19       14
    I18(3)    R40       1
    I19(3)    OBJ       -24
    I19(3)    R0        7
    I19(3)    R20       4
    I19(3)    R40       1
    I20(3)    OBJ       -32
    I20(3)    R0        -72
    I20(3)    R21       1
    I20(3)    R40       1
    I21(3)    OBJ       167
    I21(3)    R0        38
    I21(3)    R22       7
    I21(3)    R40       1
    I22(3)    OBJ       137
    I22(3)    R0        -101
    I22(3)    R23       8
    I22(3)    R40       1
    I23(3)    OBJ       40
    I23(3)    R0        50
    I23(3)    R24       10
    I23(3)    R40       1
    I24(3)    OBJ       -60
    I24(3)    R0        122
    I24(3)    R25       6
    I24(3)    R40       1
    I25(3)    OBJ       -3
    I25(3)    R0        8
    I25(3)    R26       5
    I25(3)    R40       1
    I26(3)    OBJ       38
    I26(3)    R0        -118
    I26(3)    R27       10
    I26(3)    R40       1
    I27(3)    OBJ       -24
    I27(3)    R0        168
    I27(3)    R28       5
    I27(3)    R40       1
    I28(3)    OBJ       74
    I28(3)    R0        82
    I28(3)    R29       5
    I28(3)    R40       1
    I29(3)    OBJ       163
    I29(3)    R0        182
    I29(3)    R30       19
    I29(3)    R40       1
    I30(3)    OBJ       78
    I30(3)    R0        -8
    I30(3)    R31       16
    I30(3)    R40       1
    I31(3)    OBJ       130
    I31(3)    R0        -179
    I31(3)    R32       5
    I31(3)    R40       1
    I32(3)    OBJ       -25
    I32(3)    R0        38
    I32(3)    R33       1
    I32(3)    R40       1
    I33(3)    OBJ       95
    I33(3)    R0        187
    I33(3)    R34       5
    I33(3)    R40       1
    I34(3)    OBJ       -198
    I34(3)    R0        -133
    I34(3)    R35       9
    I34(3)    R40       1
    I35(3)    OBJ       -82
    I35(3)    R0        6
    I35(3)    R36       18
    I35(3)    R40       1
    I36(3)    OBJ       -146
    I36(3)    R0        187
    I36(3)    R37       16
    I36(3)    R40       1
    I37(3)    OBJ       -190
    I37(3)    R0        187
    I37(3)    R38       19
    I37(3)    R40       1
    MARKER    'MARKER'                 'INTEND'
    C38(37)   OBJ       5
    C38(37)   R0        2
    C38(37)   R2        19
    C38(37)   R3        2
    C38(37)   R4        18
    C38(37)   R5        15
    C38(37)   R6        5
    C38(37)   R7        14
    C38(37)   R8        2
    C38(37)   R9        14
    C38(37)   R10       4
    C38(37)   R11       14
    C38(37)   R12       15
    C38(37)   R13       6
    C38(37)   R14       4
    C38(37)   R15       14
    C38(37)   R16       19
    C38(37)   R17       18
    C38(37)   R18       15
    C38(37)   R19       2
    C38(37)   R20       10
    C38(37)   R21       13
    C38(37)   R22       14
    C38(37)   R23       16
    C38(37)   R24       11
    C38(37)   R25       14
    C38(37)   R26       11
    C38(37)   R27       13
    C38(37)   R28       8
    C38(37)   R30       4
    C38(37)   R31       12
    C38(37)   R32       19
    C38(37)   R34       11
    C38(37)   R35       14
    C38(37)   R36       4
    C38(37)   R37       14
    C38(37)   R38       18
    C38(37)   R39       18
    C39(40)   OBJ       9
    C39(40)   R0        -4
    C39(40)   R1        5
    C39(40)   R2        7
    C39(40)   R3        19
    C39(40)   R4        16
    C39(40)   R5        19
    C39(40)   R6        7
    C39(40)   R7        10
    C39(40)   R8        9
    C39(40)   R9        16
    C39(40)   R10       -1
    C39(40)   R11       16
    C39(40)   R12       10
    C39(40)   R13       8
    C39(40)   R14       19
    C39(40)   R15       7
    C39(40)   R16       6
    C39(40)   R17       9
    C39(40)   R18       5
    C39(40)   R19       3
    C39(40)   R20       9
    C39(40)   R21       8
    C39(40)   R22       11
    C39(40)   R23       4
    C39(40)   R24       11
    C39(40)   R25       10
    C39(40)   R26       14
    C39(40)   R27       18
    C39(40)   R28       3
    C39(40)   R29       18
    C39(40)   R30       14
    C39(40)   R31       4
    C39(40)   R32       8
    C39(40)   R33       6
    C39(40)   R34       6
    C39(40)   R35       1
    C39(40)   R36       2
    C39(40)   R37       15
    C39(40)   R38       -1
    C39(40)   R39       13
    C40(1)    R1        1
    C41(1)    R2        1
    C42(1)    R3        1
    C43(1)    R4        1
    C44(1)    R5        1
    C45(1)    R6        1
    C46(1)    R7        1
    C47(1)    R8        1
    C48(1)    R9        1
    C49(1)    R10       1
    C50(1)    R11       1
    C51(1)    R12       1
    C52(1)    R13       1
    C53(1)    R14       1
    C54(1)    R15       1
    C55(1)    R16       1
    C56(1)    R17       1
    C57(1)    R18       1
    C58(1)    R19       1
    C59(1)    R20       1
    C60(1)    R21       1
    C61(1)    R22       1
    C62(1)    R23       1
    C63(1)    R24       1
    C64(1)    R25       1
    C65(1)    R26       1
    C66(1)    R27       1
    C67(1)    R28       1
    C68(1)    R29       1
    C69(1)    R30       1
    C70(1)    R31       1
    C71(1)    R32       1
    C72(1)    R33       1
    C73(1)    R34       1
    C74(1)    R35       1
    C75(1)    R36       1
    C76(1)    R37       1
    C77(1)    R38       1
    C78(1)    R39       1
    C79(1)    R40       1
RHS
    RHS1      R0        99
    RHS1      R1        63
    RHS1      R2        66
    RHS1      R3        97
    RHS1      R4        82
    RHS1      R5        99
    RHS1      R6        51
    RHS1      R7        61
    RHS1      R8        71
    RHS1      R9        97
    RHS1      R10       76
    RHS1      R11       89
    RHS1      R12       85
    RHS1      R13       56
    RHS1      R14       82
    RHS1      R15       75
    RHS1      R16       55
    RHS1      R17       53
    RHS1      R18       51
    RHS1      R19       93
    RHS1      R20       88
    RHS1      R21       75
    RHS1      R22       62
    RHS1      R23       73
    RHS1      R24       61
    RHS1      R25       57
    RHS1      R26       98
    RHS1      R27       63
    RHS1      R28       77
    RHS1      R29       79
    RHS1      R30       81
    RHS1      R31       83
    RHS1      R32       58
    RHS1      R33       82
    RHS1      R34       60
    RHS1      R35       91
    RHS1      R36       90
    RHS1      R37       67
    RHS1      R38       89
    RHS1      R39       66
    RHS1      R40       12
BOUNDS
 UP BND1      I0(3)     1
 UP BND1      I1(3)     1
 UP BND1      I2(3)     1
 UP BND1      I3(3)     1
 UP BND1      I4(3)     1
 UP BND1      I5(3)     1
 UP BND1      I6(3)     1
 UP BND1      I7(3)     1
 UP BND1      I8(3)     1
 UP BND1      I9(3)     1
 UP BND1      I10(3)    1
 UP BND1      I11(3)    1
 UP BND1      I12(3)    1
 UP BND1      I13(3)    1
 UP BND1      I14(3)    1
 UP BND1      I15(3)    1
 UP BND1      I16(3)    1
 UP BND1      I17(3)    1
 UP BND1      I18(3)    1
 UP BND1      I19(3)    1
 UP BND1      I20(3)    1
 UP BND1      I21(3)    1
 UP BND1      I22(3)    1
 UP BND1      I23(3)    1
 UP BND1      I24(3)    1
 UP BND1      I25(3)    1
 UP BND1      I26(3)    1
 UP BND1      I27(3)    1
 UP BND1      I28(3)    1
 UP BND1      I29(3)    1
 UP BND1      I30(3)    1
 UP BND1      I31(3)    1
 UP BND1      I32(3)    1
 UP BND1      I33(3)    1
 UP BND1      I34(3)    1
 UP BND1      I35(3)    1
 UP BND1      I36(3)    1
 UP BND1      I37(3)    1
ENDATA
